Welcome to the CBC MILP Solver 
Version: Trunk
Build Date: Apr 16 2020 

Starting solution of the Linear programming relaxation problem using Primal Simplex

Using Python-MIP package version 1.8.1
Machines:  4 Jobs:  4
Order: 
Job  0 : machine 0 ( 10 ) machine 3 ( 1 ) machine 2 ( 6 ) machine 1 ( 7 ) 
Job  1 : machine 0 ( 1 ) machine 3 ( 7 ) machine 1 ( 5 ) machine 2 ( 8 ) 
Job  2 : machine 3 ( 9 ) machine 2 ( 3 ) machine 1 ( 7 ) machine 0 ( 1 ) 
Job  3 : machine 1 ( 7 ) machine 3 ( 3 ) machine 0 ( 9 ) machine 2 ( 10 ) 
K:  44
Job  0 , e: machine  0 ( 0 ) machine  1 ( 17 ) machine  2 ( 11 ) machine  3 ( 10 ) 
Job  1 , e: machine  0 ( 0 ) machine  1 ( 8 ) machine  2 ( 13 ) machine  3 ( 1 ) 
Job  2 , e: machine  0 ( 19 ) machine  1 ( 12 ) machine  2 ( 9 ) machine  3 ( 0 ) 
Job  3 , e: machine  0 ( 10 ) machine  1 ( 0 ) machine  2 ( 19 ) machine  3 ( 7 ) 
Job  0 , f: machine  0 ( 14 ) machine  1 ( 0 ) machine  2 ( 7 ) machine  3 ( 13 ) 
Job  1 , f: machine  0 ( 20 ) machine  1 ( 8 ) machine  2 ( 0 ) machine  3 ( 13 ) 
Job  2 , f: machine  0 ( 0 ) machine  1 ( 1 ) machine  2 ( 8 ) machine  3 ( 11 ) 
Job  3 , f: machine  0 ( 10 ) machine  1 ( 22 ) machine  2 ( 0 ) machine  3 ( 19 ) 
EST and LST:
Job: 0 Machine: 0 EST: 0 LST: 20
Job: 0 Machine: 1 EST: 17 LST: 37
Job: 0 Machine: 2 EST: 11 LST: 31
Job: 0 Machine: 3 EST: 10 LST: 30
Job: 1 Machine: 0 EST: 0 LST: 23
Job: 1 Machine: 1 EST: 8 LST: 31
Job: 1 Machine: 2 EST: 13 LST: 36
Job: 1 Machine: 3 EST: 1 LST: 24
Job: 2 Machine: 0 EST: 19 LST: 43
Job: 2 Machine: 1 EST: 12 LST: 36
Job: 2 Machine: 2 EST: 9 LST: 33
Job: 2 Machine: 3 EST: 0 LST: 24
Job: 3 Machine: 0 EST: 10 LST: 25
Job: 3 Machine: 1 EST: 0 LST: 15
Job: 3 Machine: 2 EST: 19 LST: 34
Job: 3 Machine: 3 EST: 7 LST: 22
Order:
Job: 0 Machine: 0 = 0 
Job: 0 Machine: 1 = 3 
Job: 0 Machine: 2 = 2 
Job: 0 Machine: 3 = 1 
Job: 1 Machine: 0 = 0 
Job: 1 Machine: 1 = 2 
Job: 1 Machine: 2 = 3 
Job: 1 Machine: 3 = 1 
Job: 2 Machine: 0 = 3 
Job: 2 Machine: 1 = 2 
Job: 2 Machine: 2 = 1 
Job: 2 Machine: 3 = 0 
Job: 3 Machine: 0 = 2 
Job: 3 Machine: 1 = 0 
Job: 3 Machine: 2 = 3 
Job: 3 Machine: 3 = 1 
Distances:
Job 0, Machine 0 -> Machine 3: distance 10
Job 0, Machine 0 -> Machine 2: distance 11
Job 0, Machine 0 -> Machine 1: distance 17
Job 0, Machine 3 -> Machine 2: distance 1
Job 0, Machine 3 -> Machine 1: distance 7
Job 0, Machine 2 -> Machine 1: distance 6
Job 1, Machine 0 -> Machine 3: distance 1
Job 1, Machine 0 -> Machine 1: distance 8
Job 1, Machine 0 -> Machine 2: distance 13
Job 1, Machine 3 -> Machine 1: distance 7
Job 1, Machine 3 -> Machine 2: distance 12
Job 1, Machine 1 -> Machine 2: distance 5
Job 2, Machine 3 -> Machine 2: distance 9
Job 2, Machine 3 -> Machine 1: distance 12
Job 2, Machine 3 -> Machine 0: distance 19
Job 2, Machine 2 -> Machine 1: distance 3
Job 2, Machine 2 -> Machine 0: distance 10
Job 2, Machine 1 -> Machine 0: distance 7
Job 3, Machine 1 -> Machine 3: distance 7
Job 3, Machine 1 -> Machine 0: distance 10
Job 3, Machine 1 -> Machine 2: distance 19
Job 3, Machine 3 -> Machine 0: distance 3
Job 3, Machine 3 -> Machine 2: distance 12
Job 3, Machine 0 -> Machine 2: distance 9
McCormic linearization
[(1, 2), (0, 0), (3, 3), (2, 0), (2, 3), (0, 2)]
obj:  0.7999999999999999
solutions:  1
+ 0.1111111111111111x(3,3) + 0.022222222222222223x(2,3) 
C:  29.166666666666664
x(0,0) = 4.02	 x(0,1) = 22.17	 x(0,2) = 15.40	 x(0,3) = 14.02	 
x(1,0) = 6.66	 x(1,1) = 14.66	 x(1,2) = 21.17	 x(1,3) = 7.66	 
x(2,0) = 28.17	 x(2,1) = 21.17	 x(2,2) = 18.17	 x(2,3) = 9.17	 
x(3,0) = 10.17	 x(3,1) = 0.00	 x(3,2) = 19.17	 x(3,3) = 7.17	 
y(0,1,0) = 0.15	 y(1,0,0) = 0.85	 
y(0,2,0) = 0.57	 y(2,0,0) = 0.43	 
y(0,3,0) = 0.81	 y(3,0,0) = 0.19	 
y(1,2,0) = 0.51	 y(2,1,0) = 0.49	 
y(1,3,0) = 0.90	 y(3,1,0) = 0.10	 
y(2,3,0) = 0.00	 y(3,2,0) = 1.00	 
y(0,1,1) = 0.35	 y(1,0,1) = 0.65	 
y(0,2,1) = 0.23	 y(2,0,1) = 0.77	 
y(0,3,1) = 0.00	 y(3,0,1) = 1.00	 
y(1,2,1) = 0.39	 y(2,1,1) = 0.61	 
y(1,3,1) = 0.32	 y(3,1,1) = 0.68	 
y(2,3,1) = 0.00	 y(3,2,1) = 1.00	 
y(0,1,2) = 0.42	 y(1,0,2) = 0.58	 
y(0,2,2) = 0.23	 y(2,0,2) = 0.77	 
y(0,3,2) = 0.45	 y(3,0,2) = 0.55	 
y(1,2,2) = 0.00	 y(2,1,2) = 1.00	 
y(1,3,2) = 0.26	 y(3,1,2) = 0.74	 
y(2,3,2) = 0.88	 y(3,2,2) = 0.12	 
y(0,1,3) = 0.03	 y(1,0,3) = 0.97	 
y(0,2,3) = 0.18	 y(2,0,3) = 0.82	 
y(0,3,3) = 0.19	 y(3,0,3) = 0.81	 
y(1,2,3) = 0.33	 y(2,1,3) = 0.67	 
y(1,3,3) = 0.10	 y(3,1,3) = 0.90	 
y(2,3,3) = 0.04	 y(3,2,3) = 0.96	 
obj:  1.0087719298245617
erro
[(3, 2), (0, 0), (2, 0), (1, 0), (0, 2)]
cliques:  0 mip: 121
C:  29.999999999999996
x(0,0) = 0.00	 x(0,1) = 17.00	 x(0,2) = 11.00	 x(0,3) = 10.00	 
x(1,0) = 0.16	 x(1,1) = 8.16	 x(1,2) = 13.16	 x(1,3) = 1.16	 
x(2,0) = 26.74	 x(2,1) = 19.74	 x(2,2) = 16.74	 x(2,3) = 7.74	 
x(3,0) = 10.45	 x(3,1) = 0.00	 x(3,2) = 19.45	 x(3,3) = 7.45	 
y(0,1,0) = 0.05	 y(1,0,0) = 0.95	 
y(0,2,0) = 0.63	 y(2,0,0) = 0.37	 
y(0,3,0) = 1.00	 y(3,0,0) = -0.00	 
y(1,2,0) = 0.63	 y(2,1,0) = 0.37	 
y(1,3,0) = 0.61	 y(3,1,0) = 0.39	 
y(2,3,0) = 0.00	 y(3,2,0) = 1.00	 
y(0,1,1) = 0.00	 y(1,0,1) = 1.00	 
y(0,2,1) = 0.62	 y(2,0,1) = 0.38	 
y(0,3,1) = 0.00	 y(3,0,1) = 1.00	 
y(1,2,1) = 0.53	 y(2,1,1) = 0.47	 
y(1,3,1) = 0.05	 y(3,1,1) = 0.95	 
y(2,3,1) = 0.00	 y(3,2,1) = 1.00	 
y(0,1,2) = 0.84	 y(1,0,2) = 0.16	 
y(0,2,2) = 0.58	 y(2,0,2) = 0.42	 
y(0,3,2) = 0.58	 y(3,0,2) = 0.42	 
y(1,2,2) = 0.29	 y(2,1,2) = 0.71	 
y(1,3,2) = 0.93	 y(3,1,2) = 0.07	 
y(2,3,2) = 0.98	 y(3,2,2) = 0.02	 
y(0,1,3) = 0.08	 y(1,0,3) = 0.92	 
y(0,2,3) = 0.29	 y(2,0,3) = 0.71	 
y(0,3,3) = 0.03	 y(3,0,3) = 0.97	 
y(1,2,3) = 0.49	 y(2,1,3) = 0.51	 
y(1,3,3) = 0.39	 y(3,1,3) = 0.61	 
y(2,3,3) = 0.45	 y(3,2,3) = 0.55	 
obj:  0.7773356385106456
solutions:  1
+ 0.0708215297450425x(1,3) + 0.022662889518413592x(3,3) + 0.0679886685552408x(2,3) 
[(1, 3), (3, 3), (2, 1), (2, 3), (1, 1)]
cliques:  1 mip: 173
C:  30.212497468098036
x(0,0) = 0.00	 x(0,1) = 17.00	 x(0,2) = 11.00	 x(0,3) = 10.00	 
x(1,0) = 1.59	 x(1,1) = 9.63	 x(1,2) = 14.63	 x(1,3) = 2.63	 
x(2,0) = 29.21	 x(2,1) = 21.80	 x(2,2) = 18.61	 x(2,3) = 9.61	 
x(3,0) = 10.08	 x(3,1) = 0.00	 x(3,2) = 19.08	 x(3,3) = 7.08	 
y(0,1,0) = 0.11	 y(1,0,0) = 0.89	 
y(0,2,0) = 0.92	 y(2,0,0) = 0.08	 
y(0,3,0) = 1.00	 y(3,0,0) = 0.00	 
y(1,2,0) = 0.93	 y(2,1,0) = 0.07	 
y(1,3,0) = 0.51	 y(3,1,0) = 0.49	 
y(2,3,0) = 0.00	 y(3,2,0) = 1.00	 
y(0,1,1) = 0.50	 y(1,0,1) = 0.50	 
y(0,2,1) = 0.93	 y(2,0,1) = 0.07	 
y(0,3,1) = 0.00	 y(3,0,1) = 1.00	 
y(1,2,1) = 0.90	 y(2,1,1) = 0.10	 
y(1,3,1) = 0.11	 y(3,1,1) = 0.89	 
y(2,3,1) = 0.00	 y(3,2,1) = 1.00	 
y(0,1,2) = 0.64	 y(1,0,2) = 0.36	 
y(0,2,2) = 0.82	 y(2,0,2) = 0.18	 
y(0,3,2) = 1.00	 y(3,0,2) = 0.00	 
y(1,2,2) = 0.71	 y(2,1,2) = 0.29	 
y(1,3,2) = 0.86	 y(3,1,2) = 0.14	 
y(2,3,2) = 0.30	 y(3,2,2) = 0.70	 
y(0,1,3) = 0.02	 y(1,0,3) = 0.98	 
y(0,2,3) = 0.65	 y(2,0,3) = 0.35	 
y(0,3,3) = 0.01	 y(3,0,3) = 0.99	 
y(1,2,3) = 0.88	 y(2,1,3) = 0.12	 
y(1,3,3) = 0.64	 y(3,1,3) = 0.36	 
y(2,3,3) = 0.02	 y(3,2,3) = 0.98	 
obj:  0.889031706038137
solutions:  1
+ 0.04672897196261682x(1,2) + 0.01869158878504673x(0,2) 
[(0, 1), (1, 2), (3, 0), (0, 2), (1, 0), (1, 1)]
cliques:  1 mip: 223
C:  31.641798907804972
x(0,0) = 6.81	 x(0,1) = 24.64	 x(0,2) = 17.81	 x(0,3) = 16.81	 
x(1,0) = 1.28	 x(1,1) = 9.28	 x(1,2) = 14.28	 x(1,3) = 2.28	 
x(2,0) = 30.64	 x(2,1) = 21.34	 x(2,2) = 18.34	 x(2,3) = 9.34	 
x(3,0) = 12.21	 x(3,1) = 0.00	 x(3,2) = 21.34	 x(3,3) = 8.98	 
y(0,1,0) = 0.00	 y(1,0,0) = 1.00	 
y(0,2,0) = 0.65	 y(2,0,0) = 0.35	 
y(0,3,0) = 0.77	 y(3,0,0) = 0.23	 
y(1,2,0) = 0.78	 y(2,1,0) = 0.22	 
y(1,3,0) = 0.59	 y(3,1,0) = 0.41	 
y(2,3,0) = 0.00	 y(3,2,0) = 1.00	 
y(0,1,1) = 0.05	 y(1,0,1) = 0.95	 
y(0,2,1) = 0.62	 y(2,0,1) = 0.38	 
y(0,3,1) = 0.00	 y(3,0,1) = 1.00	 
y(1,2,1) = 0.68	 y(2,1,1) = 0.32	 
y(1,3,1) = 0.00	 y(3,1,1) = 1.00	 
y(2,3,1) = 0.00	 y(3,2,1) = 1.00	 
y(0,1,2) = 0.60	 y(1,0,2) = 0.40	 
y(0,2,2) = 0.64	 y(2,0,2) = 0.36	 
y(0,3,2) = 0.64	 y(3,0,2) = 0.36	 
y(1,2,2) = 0.31	 y(2,1,2) = 0.69	 
y(1,3,2) = 0.96	 y(3,1,2) = 0.04	 
y(2,3,2) = 1.00	 y(3,2,2) = 0.00	 
y(0,1,3) = 0.34	 y(1,0,3) = 0.66	 
y(0,2,3) = 0.07	 y(2,0,3) = 0.93	 
y(0,3,3) = 0.00	 y(3,0,3) = 1.00	 
y(1,2,3) = 0.62	 y(2,1,3) = 0.38	 
y(1,3,3) = 0.40	 y(3,1,3) = 0.60	 
y(2,3,3) = 0.64	 y(3,2,3) = 0.36	 
obj:  0.9999999999999998
erro
[(1, 2), (1, 3), (3, 3), (3, 0), (1, 0), (0, 2)]
cliques:  0 mip: 227
C:  32.17756868789828
x(0,0) = 2.38	 x(0,1) = 19.38	 x(0,2) = 13.38	 x(0,3) = 12.38	 
x(1,0) = 0.25	 x(1,1) = 8.25	 x(1,2) = 16.05	 x(1,3) = 1.25	 
x(2,0) = 31.18	 x(2,1) = 23.67	 x(2,2) = 19.33	 x(2,3) = 10.33	 
x(3,0) = 12.30	 x(3,1) = 0.00	 x(3,2) = 21.30	 x(3,3) = 9.23	 
y(0,1,0) = 0.00	 y(1,0,0) = 1.00	 
y(0,2,0) = 0.82	 y(2,0,0) = 0.18	 
y(0,3,0) = 1.00	 y(3,0,0) = 0.00	 
y(1,2,0) = 0.89	 y(2,1,0) = 0.11	 
y(1,3,0) = 1.00	 y(3,1,0) = 0.00	 
y(2,3,0) = 0.00	 y(3,2,0) = 1.00	 
y(0,1,1) = 0.01	 y(1,0,1) = 0.99	 
y(0,2,1) = 0.92	 y(2,0,1) = 0.08	 
y(0,3,1) = 0.00	 y(3,0,1) = 1.00	 
y(1,2,1) = 0.80	 y(2,1,1) = 0.20	 
y(1,3,1) = 0.00	 y(3,1,1) = 1.00	 
y(2,3,1) = 0.00	 y(3,2,1) = 1.00	 
y(0,1,2) = 0.82	 y(1,0,2) = 0.18	 
y(0,2,2) = 0.90	 y(2,0,2) = 0.10	 
y(0,3,2) = 0.72	 y(3,0,2) = 0.28	 
y(1,2,2) = 0.77	 y(2,1,2) = 0.23	 
y(1,3,2) = 0.89	 y(3,1,2) = 0.11	 
y(2,3,2) = 0.92	 y(3,2,2) = 0.08	 
y(0,1,3) = 0.33	 y(1,0,3) = 0.67	 
y(0,2,3) = 0.48	 y(2,0,3) = 0.52	 
y(0,3,3) = 0.00	 y(3,0,3) = 1.00	 
y(1,2,3) = 0.74	 y(2,1,3) = 0.26	 
y(1,3,3) = 0.83	 y(3,1,3) = 0.17	 
y(2,3,3) = 0.08	 y(3,2,3) = 0.92	 
obj:  1.0382986413066033
erro
[(3, 2), (1, 3), (2, 3), (0, 3), (0, 2)]
cliques:  0 mip: 216
C:  33.0
x(0,0) = 3.77	 x(0,1) = 20.77	 x(0,2) = 14.77	 x(0,3) = 13.77	 
x(1,0) = 2.49	 x(1,1) = 10.49	 x(1,2) = 15.49	 x(1,3) = 3.49	 
x(2,0) = 32.00	 x(2,1) = 24.36	 x(2,2) = 17.99	 x(2,3) = 8.65	 
x(3,0) = 13.77	 x(3,1) = 0.00	 x(3,2) = 22.77	 x(3,3) = 7.27	 
y(0,1,0) = 0.00	 y(1,0,0) = 1.00	 
y(0,2,0) = 0.69	 y(2,0,0) = 0.31	 
y(0,3,0) = 1.00	 y(3,0,0) = 0.00	 
y(1,2,0) = 0.80	 y(2,1,0) = 0.20	 
y(1,3,0) = 1.00	 y(3,1,0) = 0.00	 
y(2,3,0) = 0.00	 y(3,2,0) = 1.00	 
y(0,1,1) = 0.07	 y(1,0,1) = 0.93	 
y(0,2,1) = 0.89	 y(2,0,1) = 0.11	 
y(0,3,1) = 0.00	 y(3,0,1) = 1.00	 
y(1,2,1) = 0.63	 y(2,1,1) = 0.37	 
y(1,3,1) = 0.00	 y(3,1,1) = 1.00	 
y(2,3,1) = 0.00	 y(3,2,1) = 1.00	 
y(0,1,2) = 0.78	 y(1,0,2) = 0.22	 
y(0,2,2) = 0.57	 y(2,0,2) = 0.43	 
y(0,3,2) = 0.77	 y(3,0,2) = 0.23	 
y(1,2,2) = 0.54	 y(2,1,2) = 0.46	 
y(1,3,2) = 0.97	 y(3,1,2) = 0.03	 
y(2,3,2) = 0.99	 y(3,2,2) = 0.01	 
y(0,1,3) = 0.15	 y(1,0,3) = 0.85	 
y(0,2,3) = 0.80	 y(2,0,3) = 0.20	 
y(0,3,3) = 0.00	 y(3,0,3) = 1.00	 
y(1,2,3) = 0.49	 y(2,1,3) = 0.51	 
y(1,3,3) = 0.52	 y(3,1,3) = 0.48	 
y(2,3,3) = 0.06	 y(3,2,3) = 0.94	 
obj:  0.9043692439494538
solutions:  1
+ 0.006568144499178979x(1,3) + 0.1023535851122058x(3,3) + 0.01587301587301588x(2,3) 
[(1, 2), (1, 3), (3, 3), (2, 3), (2, 2)]
cliques:  1 mip: 0
C:  33.0
x(0,0) = 3.77	 x(0,1) = 20.77	 x(0,2) = 14.77	 x(0,3) = 13.77	 
x(1,0) = 2.49	 x(1,1) = 10.49	 x(1,2) = 15.49	 x(1,3) = 3.49	 
x(2,0) = 32.00	 x(2,1) = 24.36	 x(2,2) = 18.13	 x(2,3) = 8.32	 
x(3,0) = 13.77	 x(3,1) = 0.00	 x(3,2) = 22.77	 x(3,3) = 8.26	 
y(0,1,0) = 0.00	 y(1,0,0) = 1.00	 
y(0,2,0) = 0.70	 y(2,0,0) = 0.30	 
y(0,3,0) = 1.00	 y(3,0,0) = 0.00	 
y(1,2,0) = 0.81	 y(2,1,0) = 0.19	 
y(1,3,0) = 1.00	 y(3,1,0) = 0.00	 
y(2,3,0) = 0.00	 y(3,2,0) = 1.00	 
y(0,1,1) = 0.09	 y(1,0,1) = 0.91	 
y(0,2,1) = 0.89	 y(2,0,1) = 0.11	 
y(0,3,1) = 0.00	 y(3,0,1) = 1.00	 
y(1,2,1) = 0.64	 y(2,1,1) = 0.36	 
y(1,3,1) = 0.00	 y(3,1,1) = 1.00	 
y(2,3,1) = 0.00	 y(3,2,1) = 1.00	 
y(0,1,2) = 0.78	 y(1,0,2) = 0.22	 
y(0,2,2) = 0.58	 y(2,0,2) = 0.42	 
y(0,3,2) = 0.77	 y(3,0,2) = 0.23	 
y(1,2,2) = 0.53	 y(2,1,2) = 0.47	 
y(1,3,2) = 0.97	 y(3,1,2) = 0.03	 
y(2,3,2) = 0.99	 y(3,2,2) = 0.01	 
y(0,1,3) = 0.15	 y(1,0,3) = 0.85	 
y(0,2,3) = 0.79	 y(2,0,3) = 0.21	 
y(0,3,3) = 0.00	 y(3,0,3) = 1.00	 
y(1,2,3) = 0.48	 y(2,1,3) = 0.52	 
y(1,3,3) = 0.60	 y(3,1,3) = 0.40	 
y(2,3,3) = 0.12	 y(3,2,3) = 0.88	 
obj:  0.9967930956347643
solutions:  1
+ 0.039151712887438815x(1,2) + 0.00380641653072322x(2,2) + 0.021750951604132682x(0,2) 
[(1, 2), (1, 3), (2, 3), (2, 2), (0, 2)]
cliques:  1 mip: 0
C:  33.0
x(0,0) = 3.72	 x(0,1) = 20.72	 x(0,2) = 14.72	 x(0,3) = 13.72	 
x(1,0) = 2.60	 x(1,1) = 10.60	 x(1,2) = 15.60	 x(1,3) = 3.60	 
x(2,0) = 32.00	 x(2,1) = 24.37	 x(2,2) = 18.14	 x(2,3) = 8.20	 
x(3,0) = 13.72	 x(3,1) = 0.00	 x(3,2) = 22.72	 x(3,3) = 8.27	 
y(0,1,0) = 0.00	 y(1,0,0) = 1.00	 
y(0,2,0) = 0.70	 y(2,0,0) = 0.30	 
y(0,3,0) = 1.00	 y(3,0,0) = 0.00	 
y(1,2,0) = 0.81	 y(2,1,0) = 0.19	 
y(1,3,0) = 1.00	 y(3,1,0) = 0.00	 
y(2,3,0) = 0.00	 y(3,2,0) = 1.00	 
y(0,1,1) = 0.09	 y(1,0,1) = 0.91	 
y(0,2,1) = 0.90	 y(2,0,1) = 0.10	 
y(0,3,1) = 0.00	 y(3,0,1) = 1.00	 
y(1,2,1) = 0.64	 y(2,1,1) = 0.36	 
y(1,3,1) = 0.00	 y(3,1,1) = 1.00	 
y(2,3,1) = 0.00	 y(3,2,1) = 1.00	 
y(0,1,2) = 0.79	 y(1,0,2) = 0.21	 
y(0,2,2) = 0.58	 y(2,0,2) = 0.42	 
y(0,3,2) = 0.77	 y(3,0,2) = 0.23	 
y(1,2,2) = 0.53	 y(2,1,2) = 0.47	 
y(1,3,2) = 0.96	 y(3,1,2) = 0.04	 
y(2,3,2) = 0.99	 y(3,2,2) = 0.01	 
y(0,1,3) = 0.14	 y(1,0,3) = 0.86	 
y(0,2,3) = 0.79	 y(2,0,3) = 0.21	 
y(0,3,3) = 0.00	 y(3,0,3) = 1.00	 
y(1,2,3) = 0.47	 y(2,1,3) = 0.53	 
y(1,3,3) = 0.60	 y(3,1,3) = 0.40	 
y(2,3,3) = 0.12	 y(3,2,3) = 0.88	 
obj:  1.0
erro
[(1, 2), (1, 3), (2, 3), (2, 2), (0, 2)]
cliques:  0 mip: 0
iterações: 8 cortes cliques encontrados: 5 mip: 1006 objective:  33.0
Coin0506I Presolve 157 (-171) rows, 90 (-71) columns and 490 (-260) elements
Clp1000I sum of infeasibilities 1.79124e-08 - average 1.14092e-10, 0 fixed columns
Coin0506I Presolve 157 (0) rows, 90 (0) columns and 490 (0) elements
Clp0029I End of values pass after 90 iterations
Clp0000I Optimal - objective value 29
Clp0000I Optimal - objective value 29
Coin0511I After Postsolve, objective 29, infeasibilities - dual 0 (0), primal 0 (0)
Clp0000I Optimal - objective value 29
Clp0000I Optimal - objective value 29
Clp0000I Optimal - objective value 29
Coin0511I After Postsolve, objective 29, infeasibilities - dual 0 (0), primal 0 (0)
Clp0032I Optimal objective 29 - 0 iterations time 0.012, Presolve 0.00, Idiot 0.01
Coin3009W Conflict graph built in 0.000 seconds, density: 0.070%
